examples/lp/example.out
Problem:    
Rows:       16
Columns:    24
Non-zeros:  87
Status:     OPTIMAL
Objective:  obj = 2 (MAXimum)

   No.   Row name   St   Activity     Lower bound   Upper bound    Marginal
------ ------------ -- ------------- ------------- ------------- -------------
     1 r_A          NU             0                           0         < eps
     2 r_B          NU             0                           0             1 
     3 r_C          NU             0                           0         < eps
     4 path_D       NU             0                           0         < eps
     5 path_E       B             -8                           0 
     6 path_F       B              0                           0 
     7 path_G       B              0                           0 
     8 path_H       B            -19                           0 
     9 path_I       B            -18                           0 
    10 path_J       B            -18                           0 
    11 path_K       B            -11                           0 
    12 path_L       NU             0                           0         < eps
    13 path_M       B             -8                           0 
    14 path_N       B            -11                           0 
    15 path_O       B            -10                           0 
    16 path_P       B            -10                           0 

   No. Column name  St   Activity     Lower bound   Upper bound    Marginal
------ ------------ -- ------------- ------------- ------------- -------------
     1 min_r        B              2             0               
     2 dem_h1       B              2             0            10 
     3 dem_h4       NU             2             0             2             1 
     4 dem_h3       B              2             0            15 
     5 x_h1_s0_eth0 B              2             0               
     6 x_s0_r1_eth2 NL             0             0                       < eps
     7 x_r1_r3_eth0 NL             0             0            10         < eps
     8 x_r3_r4_eth1 NL             0             0            10         < eps
     9 x_r4_h4_eth0 NS             0             0             =         < eps
    10 x_r3_r2_eth1 NL            -8            -8             0         < eps
    11 x_r2_r4_eth0 NL             0             0            10         < eps
    12 x_r1_r2_eth0 NL             0             0             3         < eps
    13 x_r2_r3_eth1 NL             0             0             8         < eps
    14 x_h4_r4_eth2 NL             0             0                       < eps
    15 x_r4_r3_eth2 NL           -10           -10             0         < eps
    16 x_r2_r1_eth0 NL            -3            -3             0         < eps
    17 x_r1_s0_eth2 NS             0             0             =         < eps
    18 x_s0_h2_eth0 NS             0             0             =         < eps
    19 x_r3_r1_eth1 NL           -10           -10             0         < eps
    20 x_r4_r2_eth2 NL           -10           -10             0         < eps
    21 x_h3_r3_eth3 B              2             0               
    22 x_s0_h1_eth0 NS             0             0             =         < eps
    23 x_h2_s0_eth1 NL             0             0                       < eps
    24 x_r3_h3_eth0 NS             0             0             =         < eps

Karush-Kuhn-Tucker optimality conditions:

KKT.PE: max.abs.err = 0.00e+00 on row 0
        max.rel.err = 0.00e+00 on row 0
        High quality

KKT.PB: max.abs.err = 0.00e+00 on row 0
        max.rel.err = 0.00e+00 on row 0
        High quality

KKT.DE: max.abs.err = 0.00e+00 on column 0
        max.rel.err = 0.00e+00 on column 0
        High quality

KKT.DB: max.abs.err = 0.00e+00 on row 0
        max.rel.err = 0.00e+00 on row 0
        High quality

End of output
